40
    10    69    88    73    89    24    16     9    43    26     6    95    42    29    79    47    81    39    34    86    86    17    45    36    10    76    68    24    32    81    34    81    63    52    56    39    40    61    21    35
     5    10     8     8    10     8    10     6     8     6     7    10     7     1     1     9    10     4     6     8    10     5     2     6     9     9    10     1     7     4     5     3     2     9     7     2     1     4     7    10
   420  1309   525  1430  1497   131   131  1514   296  1456   762  1278   426  1374    41   693   575   814   596   175   574   446   977  1315   476  1021  1343   618   409  1383   594  1099  1208   364   492  1369  1164   995  1251  1014
